certificates/rado_a13_c244_N34.cnf
c Rad2 upper bound instance: x1 + 13*x2 - x3 = 244, interval [1,34]
p cnf 34 178
1 4 19 0
-1 -4 -19 0
1 17 20 0
-1 -17 -20 0
1 21 30 0
-1 -21 -30 0
2 5 19 0
-2 -5 -19 0
2 18 20 0
-2 -18 -20 0
2 21 31 0
-2 -21 -31 0
3 6 19 0
-3 -6 -19 0
3 19 20 0
-3 -19 -20 0
3 21 32 0
-3 -21 -32 0
4 7 19 0
-4 -7 -19 0
4 20 0
-4 -20 0
4 21 33 0
-4 -21 -33 0
5 8 19 0
-5 -8 -19 0
5 20 21 0
-5 -20 -21 0
5 21 34 0
-5 -21 -34 0
6 9 19 0
-6 -9 -19 0
6 20 22 0
-6 -20 -22 0
7 10 19 0
-7 -10 -19 0
7 20 23 0
-7 -20 -23 0
8 11 19 0
-8 -11 -19 0
8 20 24 0
-8 -20 -24 0
9 12 19 0
-9 -12 -19 0
9 20 25 0
-9 -20 -25 0
10 13 19 0
-10 -13 -19 0
10 20 26 0
-10 -20 -26 0
1 11 18 0
-1 -11 -18 0
11 14 19 0
-11 -14 -19 0
11 20 27 0
-11 -20 -27 0
2 12 18 0
-2 -12 -18 0
12 15 19 0
-12 -15 -19 0
12 20 28 0
-12 -20 -28 0
3 13 18 0
-3 -13 -18 0
13 16 19 0
-13 -16 -19 0
13 20 29 0
-13 -20 -29 0
4 14 18 0
-4 -14 -18 0
14 17 19 0
-14 -17 -19 0
14 20 30 0
-14 -20 -30 0
5 15 18 0
-5 -15 -18 0
15 18 19 0
-15 -18 -19 0
15 20 31 0
-15 -20 -31 0
6 16 18 0
-6 -16 -18 0
16 19 0
-16 -19 0
16 20 32 0
-16 -20 -32 0
7 17 18 0
-7 -17 -18 0
17 19 20 0
-17 -19 -20 0
17 20 33 0
-17 -20 -33 0
8 18 0
-8 -18 0
18 19 21 0
-18 -19 -21 0
18 20 34 0
-18 -20 -34 0
9 18 19 0
-9 -18 -19 0
19 22 0
-19 -22 0
10 18 20 0
-10 -18 -20 0
19 20 23 0
-19 -20 -23 0
11 18 21 0
-11 -18 -21 0
19 21 24 0
-19 -21 -24 0
12 18 22 0
-12 -18 -22 0
19 22 25 0
-19 -22 -25 0
13 18 23 0
-13 -18 -23 0
19 23 26 0
-19 -23 -26 0
1 17 24 0
-1 -17 -24 0
14 18 24 0
-14 -18 -24 0
19 24 27 0
-19 -24 -27 0
2 17 25 0
-2 -17 -25 0
15 18 25 0
-15 -18 -25 0
19 25 28 0
-19 -25 -28 0
3 17 26 0
-3 -17 -26 0
16 18 26 0
-16 -18 -26 0
19 26 29 0
-19 -26 -29 0
4 17 27 0
-4 -17 -27 0
17 18 27 0
-17 -18 -27 0
19 27 30 0
-19 -27 -30 0
5 17 28 0
-5 -17 -28 0
18 28 0
-18 -28 0
19 28 31 0
-19 -28 -31 0
6 17 29 0
-6 -17 -29 0
18 19 29 0
-18 -19 -29 0
19 29 32 0
-19 -29 -32 0
7 17 30 0
-7 -17 -30 0
18 20 30 0
-18 -20 -30 0
19 30 33 0
-19 -30 -33 0
8 17 31 0
-8 -17 -31 0
18 21 31 0
-18 -21 -31 0
19 31 34 0
-19 -31 -34 0
9 17 32 0
-9 -17 -32 0
18 22 32 0
-18 -22 -32 0
10 17 33 0
-10 -17 -33 0
18 23 33 0
-18 -23 -33 0
11 17 34 0
-11 -17 -34 0
18 24 34 0
-18 -24 -34 0
