certificates/rado_a13_c244_N34.drat
19 -32 -33 0
-21 -19 -34 0
-19 -33 -34 0
21 19 -34 0
-33 -34 0
d -19 -33 -34 0
-21 -34 0
d -21 -19 -34 0
-34 0
21 33 0
d 21 4 33 0
-19 -21 0
d -24 -19 -21 0
-21 0
33 0
5 0
19 0
-16 0
-22 0
-30 0
-2 0
-8 0
1 0
31 0
18 0
-4 0
-11 0
-28 0
-23 0
-15 0
-9 0
-29 0
20 0
17 0
0
